p cnf 20 14
-14 19 9 11 13 15 0
-16 17 -12 5 20 -6 0
1 4 7 -20 -19 -18 -3 -2 0
2 -18 -1 -10 0
9 -13 14 15 0
8 -7 2 -1 0
-16 17 -10 11 -18 15 0
17 -5 6 0
-16 4 -3 -10 0
8 -7 -3 0
1 3 5 12 -18 -16 -6 -4 -2 0
3 7 -20 -19 -10 -8 -4 0
8 1 -4 -19 0
3 5 9 13 -17 19 -12 -7 -6 -2 0
